NAME: GRASP_46_5
TYPE: TSP
COMMENT: line_46_5
DIMENSION: 46
EDGE_WEIGHT_TYPE: EUC_2D
NODE_COORD_SECTION
1 471 1621
2 1862 1730
3 958 1156
4 4219 2592
5 3056 4056
6 3432 2852
7 3848 3923
8 1794 301
9 748 4690
10 2429 4662
11 3878 714
12 2641 274
13 3935 4041
14 1618 3044
15 1833 3459
16 1512 4387
17 3380 2708
18 1725 3710
19 4929 1962
20 897 627
21 3524 880
22 1867 3071
23 3168 2992
24 2731 1805
25 1689 4160
26 172 2102
27 787 2887
28 605 2553
29 3314 1914
30 3241 2102
31 331 2167
32 3342 1253
33 2918 464
34 4069 2003
35 1784 2399
36 2968 3099
37 1981 3289
38 3439 1653
39 210 4628
40 216 4793
41 1933 2243
42 3442 2631
43 3541 1276
44 4926 4443
45 4145 2437
46 1658 4890
